p cnf 18 36
11 15 -16 17 -14 0
11 15 -14 -12 -2 0
9 11 -18 -14 -12 0
8 -18 -16 -7 -2 0
1 7 11 -16 17 0
7 13 -18 15 -16 0
13 -18 -14 -12 -7 0
9 13 15 -16 -10 0
11 15 -16 17 -8 0
17 13 0
-4 -18 0
-6 11 0
1 3 0
-8 7 0
13 -2 0
1 -14 0
17 -6 0
5 -10 0
11 -4 0
-12 7 0
9 3 0
9 5 0
-14 -6 0
-4 -10 0
-14 -4 0
-14 7 0
-8 -18 0
-6 15 0
1 -6 0
-14 5 0
-12 -4 0
3 -2 0
1 13 0
3 -12 -18 0
-16 18 11 5 0
17 -2 -18 0
